NAME : att48.tsp
TYPE : TOUR
DIMENSION : 48
TOUR_LENGTH : 35531.835730378865
TOUR_SECTION
1
8
9
38
31
44
18
7
36
28
6
37
19
27
17
43
30
20
47
21
39
32
24
45
35
4
26
10
42
48
5
29
2
41
34
14
25
13
23
11
12
33
46
15
40
22
16
3
-1
